(set-logic HORN)
(declare-fun state (Int (Array Int Int) (Array Int Int) (Array Int Int) (Array Int Int) Int Int (Array Int Int) (Array Int Int) Int Int Int Int Int Int Int Int Int Int Int Int Int Int Int Int Int Int Int Int Int Int Int Int Int Int Int Int Int Bool Bool Bool Bool Bool Int (Array Int Int) Int) Bool)
(assert (forall ((|A_8| Int) (|B_8| (Array Int Int)) (|C_8| (Array Int Int)) (|D_8| (Array Int Int)) (|E_8| (Array Int Int)) (|F_8| Int) (|G_8| Int) (|H_8| (Array Int Int)) (|I_8| (Array Int Int)) (|J_8| Int) (|K_8| Int) (|L_8| Int) (|M_8| Int) (|N_8| Int) (|O_8| Int) (|P_8| Int) (|Q_8| Int) (|R_8| Int) (|S_8| Int) (|N1_6| Int) (|U_8| Int) (|V_8| Int) (|W_8| Int) (|X_8| Int) (|Y_8| Int) (|Z_8| Int) (|A1_8| Int) (|B1_8| Int) (|C1_8| Int) (|D1_8| Int) (|E1_8| Int) (|F1_8| Int) (|G1_8| Int) (|H1_8| Int) (|I1_8| Int) (|J1_8| Int) (|K1_8| Int) (|L1_8| Int) (|M1_8| Bool) (|.loc.5| Bool) (|.loc.6| Bool) (|.loc.7| Bool) (|.loc.8| Bool) (|S1_1| Int) (|N1_0| (Array Int Int)) (|P1_7| Int) (|.x.472| Int) (|.x.470| (Array Int Int)) (|.x.468| Int) (|.x.466| (Array Int Int)) (|.x.462| Int) (|.x.464| (Array Int Int)) (|.x.481| Int) (|.x.474| Int) (|.x.491| Int) (|.x.496| Int) (|.x.500| Bool) (|.x.478| Int) (|.x.463| (Array Int Int)) (|.x.488| Int) (|.x.490| Int) (|.x.495| Int) (|.x.497| Int) (|.x.498| Int) (|.loc.9| Bool) (|.x.489| Int) (|.loc.11| Bool) (|.x.499| Int) (|.loc.10| Bool) (|.x.494| Int) (|.x.482| Int) (|.loc.12| Bool) (|.x.473| Int) (|.x.465| (Array Int Int)) (|.x.479| Int) (|.x.485| Int) (|.x.493| Int) (|.x.483| Int) (|.x.480| Int) (|.x.484| Int) (|.x.486| Int) (|.x.487| Int) (|.x.477| Int) (|.x.475| Int) (|.x.476| Int) (|.x.492| Int) (|.x.469| (Array Int Int)) (|.x.467| Int) (|.x.471| Int) (|.xtv.1| Int) (|.xtv.2| (Array Int Int)) (|.xtv.3| Int)) (=> (and (and (and (and (not .loc.6) (not .loc.5)) (not .loc.7)) (not .loc.8)) (and (and (and (and (and (= D_8 E_8) (not M1_8)) (= F_8 G_8)) (= J_8 K_8)) (= H_8 I_8)) (= B_8 C_8))) (state |A_8| |B_8| |C_8| |D_8| |E_8| |F_8| |G_8| |H_8| |I_8| |J_8| |K_8| |L_8| |M_8| |N_8| |O_8| |P_8| |Q_8| |R_8| |S_8| |N1_6| |U_8| |V_8| |W_8| |X_8| |Y_8| |Z_8| |A1_8| |B1_8| |C1_8| |D1_8| |E1_8| |F1_8| |G1_8| |H1_8| |I1_8| |J1_8| |K1_8| |L1_8| |M1_8| |.loc.5| |.loc.6| |.loc.7| |.loc.8| |S1_1| |N1_0| |P1_7|))))
(assert (forall ((|A_8| Int) (|B_8| (Array Int Int)) (|C_8| (Array Int Int)) (|D_8| (Array Int Int)) (|E_8| (Array Int Int)) (|F_8| Int) (|G_8| Int) (|H_8| (Array Int Int)) (|I_8| (Array Int Int)) (|J_8| Int) (|K_8| Int) (|L_8| Int) (|M_8| Int) (|N_8| Int) (|O_8| Int) (|P_8| Int) (|Q_8| Int) (|R_8| Int) (|S_8| Int) (|N1_6| Int) (|U_8| Int) (|V_8| Int) (|W_8| Int) (|X_8| Int) (|Y_8| Int) (|Z_8| Int) (|A1_8| Int) (|B1_8| Int) (|C1_8| Int) (|D1_8| Int) (|E1_8| Int) (|F1_8| Int) (|G1_8| Int) (|H1_8| Int) (|I1_8| Int) (|J1_8| Int) (|K1_8| Int) (|L1_8| Int) (|M1_8| Bool) (|.loc.5| Bool) (|.loc.6| Bool) (|.loc.7| Bool) (|.loc.8| Bool) (|S1_1| Int) (|N1_0| (Array Int Int)) (|P1_7| Int) (|.x.472| Int) (|.x.470| (Array Int Int)) (|.x.468| Int) (|.x.466| (Array Int Int)) (|.x.462| Int) (|.x.464| (Array Int Int)) (|.x.481| Int) (|.x.474| Int) (|.x.491| Int) (|.x.496| Int) (|.x.500| Bool) (|.x.478| Int) (|.x.463| (Array Int Int)) (|.x.488| Int) (|.x.490| Int) (|.x.495| Int) (|.x.497| Int) (|.x.498| Int) (|.loc.9| Bool) (|.x.489| Int) (|.loc.11| Bool) (|.x.499| Int) (|.loc.10| Bool) (|.x.494| Int) (|.x.482| Int) (|.loc.12| Bool) (|.x.473| Int) (|.x.465| (Array Int Int)) (|.x.479| Int) (|.x.485| Int) (|.x.493| Int) (|.x.483| Int) (|.x.480| Int) (|.x.484| Int) (|.x.486| Int) (|.x.487| Int) (|.x.477| Int) (|.x.475| Int) (|.x.476| Int) (|.x.492| Int) (|.x.469| (Array Int Int)) (|.x.467| Int) (|.x.471| Int) (|.xtv.1| Int) (|.xtv.2| (Array Int Int)) (|.xtv.3| Int)) (=> (and (state |A_8| |B_8| |C_8| |D_8| |E_8| |F_8| |G_8| |H_8| |I_8| |J_8| |K_8| |L_8| |M_8| |N_8| |O_8| |P_8| |Q_8| |R_8| |S_8| |N1_6| |U_8| |V_8| |W_8| |X_8| |Y_8| |Z_8| |A1_8| |B1_8| |C1_8| |D1_8| |E1_8| |F1_8| |G1_8| |H1_8| |I1_8| |J1_8| |K1_8| |L1_8| |M1_8| |.loc.5| |.loc.6| |.loc.7| |.loc.8| |S1_1| |N1_0| |P1_7|) (let ((.def_56 (not .loc.6))) (let ((.def_57 (not .loc.5))) (let ((.def_59 (not .loc.7))) (let ((.def_61 (not .loc.8))) (let ((.def_96 (= M_8 .x.474))) (let ((.def_99 (= D1_8 .x.491))) (let ((.def_102 (= I1_8 .x.496))) (let ((.def_105 (= M1_8 .x.500))) (let ((.def_109 (= .x.474 0))) (let ((.def_113 (= N1_6 .x.481))) (let ((.def_117 (= .x.491 0))) (let ((.def_123 (or M1_8 (and (= .x.496 (ite (or (= .x.491 1) .def_117) 1 0)) (= .x.474 .x.496))))) (let ((.def_127 (= Q_8 .x.478))) (let ((.def_129 (= B_8 .x.463))) (let ((.def_130 (and .def_127 .def_129))) (let ((.def_132 (= A1_8 .x.488))) (let ((.def_135 (= C1_8 .x.490))) (let ((.def_138 (= H1_8 .x.495))) (let ((.def_141 (= J1_8 .x.497))) (let ((.def_144 (= K1_8 .x.498))) (let ((.def_151 (and .def_102 (and .def_96 .def_99)))) (let ((.def_155 (not .loc.9))) (let ((.def_160 (= .x.463 (store (store B_8 A1_8 0) Q_8 0)))) (let ((.def_161 (= S1_1 0))) (let ((.def_163 (= .x.495 0))) (let ((.def_166 (or .x.500 (and .def_160 (and (not .def_161) .def_163))))) (let ((.def_170 (select D_8 Q_8))) (let ((.def_173 (or M1_8 (= S1_1 (select .def_170 (+ C1_8 4)))))) (let ((.def_177 (<= O_8 G1_8))) (let ((.def_192 (= B1_8 .x.489))) (let ((.def_197 (= B1_8 0))) (let ((.def_200 (and .def_127 (and .def_96 .def_129)))) (let ((.def_207 (and .def_144 (and .def_141 (and .def_102 (and .def_138 (and .def_99 (and .def_135 (and .def_132 .def_200))))))))) (let ((.def_215 (not .loc.11))) (let ((.def_225 (and .def_105 (and .def_141 (and .def_102 (and .def_99 (and .def_96 .def_192))))))) (let ((.def_236 (= L1_8 .x.499))) (let ((.def_247 (select D_8 A1_8))) (let ((.def_250 (or M1_8 (= S1_1 (select .def_247 (+ K1_8 4)))))) (let ((.def_253 (and M1_8 .def_129))) (let ((.def_255 (and .def_127 (and .def_96 .def_253)))) (let ((.def_281 (and .def_105 (and .def_207 .def_236)))) (let ((.def_289 (not .loc.10))) (let ((.def_294 (= G1_8 .x.494))) (let ((.def_296 (= U_8 .x.482))) (let ((.def_383 (not .loc.12))) (let ((.def_399 (and .loc.6 (and .loc.5 (and .def_105 (and .def_236 (and .def_144 (and .def_141 (and .def_102 (and .def_138 (and .def_294 (and .def_99 (and .def_135 (and .def_192 (and .def_132 (and .def_200 .def_296)))))))))))))))) (let ((.def_408 (<= 5 X_8))) (let ((.def_409 (or M1_8 .def_408))) (let ((.def_413 (= L_8 .x.473))) (let ((.def_415 (= D_8 .x.465))) (let ((.def_418 (= R_8 .x.479))) (let ((.def_421 (= X_8 .x.485))) (let ((.def_433 (not .def_408))) (let ((.def_447 (= (+ X_8 (* (- 1) .x.485)) (- 1)))) (let ((.def_448 (or .x.500 .def_447))) (let ((.def_454 (and .def_129 .def_415))) (let ((.def_456 (and .def_96 (and .def_413 .def_454)))) (let ((.def_458 (and .def_418 (and .def_127 .def_456)))) (let ((.def_459 (and .def_296 .def_458))) (let ((.def_464 (and .def_99 (and .def_135 (and .def_192 (and .def_132 (and .def_421 .def_459))))))) (let ((.def_483 (= F1_8 .x.493))) (let ((.def_485 (= F1_8 0))) (let ((.def_507 (and .def_96 (and .def_413 (and .def_253 .def_415))))) (let ((.def_509 (and .def_418 (and .def_127 .def_507)))) (let ((.def_534 (<= G1_8 S_8))) (let ((.def_536 (<= O_8 X_8))) (let ((.def_558 (= V_8 .x.483))) (let ((.def_560 (= S_8 .x.480))) (let ((.def_563 (= W_8 .x.484))) (let ((.def_566 (= Y_8 .x.486))) (let ((.def_569 (= Z_8 .x.487))) (let ((.def_575 (= S1_1 P1_7))) (let ((.def_612 (or M1_8 (and (and (= S1_1 (select .def_247 (+ X_8 K1_8))) (and (not .def_534) (not .def_536))) (= P1_7 (select .def_170 (+ S_8 C1_8))))))) (let ((.def_622 (= .x.480 0))) (let ((.def_712 (= P_8 .x.477))) (let ((.def_714 (= N_8 .x.475))) (let ((.def_760 (= .x.485 0))) (let ((.def_763 (and .def_456 .def_714))) (let ((.def_770 (and .def_563 (and .def_558 (and .def_296 (and .def_560 (and .def_418 (and .def_127 (and .def_712 .def_763))))))))) (let ((.def_846 (and .def_105 (and .def_236 (and .def_144 (and .def_141 (and .def_102 (and .def_138 (and .def_294 (and .def_99 (and .def_135 (and .def_192 (and .def_132 (and .def_569 (and .def_566 (and .def_421 .def_770)))))))))))))))) (let ((.def_859 (= O_8 .x.476))) (let ((.def_861 (= E1_8 .x.492))) (let ((.def_919 (= H_8 .x.469))) (let ((.def_921 (= F_8 .x.467))) (let ((.def_924 (= J_8 .x.471))) (let ((.def_951 (store N1_0 .x.488 1))) (and (and (= K_8 .x.472) (and (= I_8 .x.470) (and (= G_8 .x.468) (and (= E_8 .x.466) (and (= A_8 .x.462) (= C_8 .x.464)))))) (or (or (and (or (or (and (or (or (or (or (and (or (or (or (or (and (or (or (or (and (or (or (and (or (or (and (or (or (or (and (or (and (or (or (and (or (or (and (or (and .loc.7 (or (and (or (and .loc.6 (and (and (and (and (or M1_8 (= H1_8 .x.481)) .def_96) .def_99) .def_102) .def_105)) (and (and (and (or M1_8 .def_109) (and .def_56 .x.500)) .def_113) .def_123)) (and (and .loc.8 (and (and (and (and (and .def_130 .def_132) .def_135) .def_138) .def_141) .def_144)) .loc.9)) (and (and (and .def_61 (and (and .def_113 (and .def_56 (and .def_105 .def_151))) .def_155)) .def_166) .def_173))) (and (or M1_8 (and .def_160 (and .def_163 (not .def_177)))) (and .def_59 (and .def_155 (and .def_113 (and .loc.8 (and .loc.6 (and .def_105 (and .def_141 .def_151))))))))) (and (and .def_57 .def_192) .loc.11)) (and (or M1_8 .def_197) (and (and .def_59 (and .def_155 (and .def_113 (and .def_56 (and .loc.8 (and .loc.5 (and .def_105 .def_207))))))) .def_215))) (and (or M1_8 (and .def_160 .def_163)) (and .def_155 (and .def_113 (and .def_56 (and .loc.11 (and .loc.8 (and .loc.7 (and .loc.5 .def_225))))))))) .def_236) (and (and .def_59 (and .def_166 (and .def_61 (and .def_155 (and .def_113 (and .loc.11 (and .def_57 (and .loc.6 .def_225)))))))) .def_250)) (and .def_215 (and .def_59 (and .def_155 (and .def_113 (and .def_56 (and .def_57 (and .loc.8 (and .def_105 (and .def_236 (and .def_144 (and .def_141 (and .def_102 (and .def_138 (and .def_99 (and .def_135 (and .def_192 (and .def_132 .def_255)))))))))))))))))) .loc.10) (and (or M1_8 (= .x.489 (select .def_170 (+ C1_8 G1_8)))) (and (and .def_215 (and .def_59 (and .def_113 (and .def_56 (and .loc.9 (and .def_57 (and .loc.8 .def_281))))))) .def_289))) (and .def_294 .def_296)) (and (or M1_8 (and (not .def_197) (= (+ G1_8 (* (- 1) .x.494)) (- 1)))) (and .def_289 (and .def_215 (and .def_59 (and .def_155 (and .def_113 (and .def_56 (and .loc.8 (and .loc.5 .def_281)))))))))) (and (or .x.500 (not .def_109)) (and .def_289 (and .def_123 (and .def_113 (and .def_56 (and .loc.11 (and .loc.9 (and .def_57 (and .loc.8 (and .loc.7 (and .def_105 (and .def_236 (and .def_144 (and .def_141 (and .def_138 (and .def_294 (and .def_135 (and .def_192 (and .def_132 (and .def_130 .def_296))))))))))))))))))))) (and .def_289 (and .def_123 (and .def_113 (and .def_56 (and .loc.11 (and .loc.9 (and .def_57 (and .loc.8 (and .loc.7 (and .def_236 (and .def_144 (and .def_141 (and .def_138 (and .def_294 (and .def_135 (and .def_192 (and .def_132 (and .def_296 (and .def_127 (and .def_129 (and M1_8 .x.500)))))))))))))))))))))) .loc.12) (and (and .def_289 (and .def_59 (and .def_61 (and .def_155 (and .def_113 (and .loc.11 (and .loc.6 (and .loc.5 (and .def_105 (and .def_236 (and .def_144 (and .def_141 (and .def_102 (and .def_138 (and .def_294 (and .def_99 (and .def_135 (and .def_192 (and .def_132 (and .def_255 .def_296)))))))))))))))))))) .def_383)) (and (and .def_383 (and .def_289 (and .def_59 (and .def_61 (and .def_155 (and .def_113 (and .loc.11 .def_399))))))) .def_409)) (and (and (and .def_413 .def_415) .def_418) .def_421)) (and (or M1_8 (and (= .x.465 (store D_8 Q_8 (store .def_170 (+ X_8 C1_8) L_8))) (and (<= (- 128) L_8) (and (<= L_8 127) .def_433)))) (and (and .def_383 (and .def_215 (and .def_59 (and .def_61 (and .def_113 (and .loc.10 (and .loc.9 .def_399))))))) .def_448))) (and (or M1_8 (= .x.494 0)) (and .def_289 (and .def_215 (and .def_61 (and .def_155 (and .def_113 (and .loc.12 (and .loc.7 (and .loc.6 (and .loc.5 (and .def_105 (and .def_236 (and .def_144 (and .def_141 (and .def_102 (and .def_138 .def_464))))))))))))))))) .def_483) (and (or M1_8 .def_485) (and .def_383 (and .def_61 (and .def_113 (and .loc.11 (and .loc.10 (and .loc.9 (and .def_57 (and .loc.7 (and .loc.6 (and .def_105 (and .def_236 (and .def_144 (and .def_141 (and .def_102 (and .def_138 (and .def_294 .def_464)))))))))))))))))) (and .def_289 (and .def_59 (and .def_155 (and .def_113 (and .loc.12 (and .loc.11 (and .loc.8 (and .loc.6 (and .loc.5 (and .def_105 (and .def_236 (and .def_144 (and .def_141 (and .def_102 (and .def_138 (and .def_294 (and .def_483 (and .def_99 (and .def_135 (and .def_192 (and .def_132 (and .def_421 (and .def_296 .def_509)))))))))))))))))))))))) (and (or (or M1_8 .def_534) .def_536) (and .def_289 (and .def_59 (and .def_155 (and .def_113 (and .loc.12 (and .loc.11 (and .loc.8 (and .loc.6 (and .loc.5 (and .def_105 (and .def_236 (and .def_144 (and .def_141 (and .def_102 (and .def_138 (and .def_294 (and .def_464 .def_483))))))))))))))))))) (and (and (and (and .def_558 .def_560) .def_563) .def_566) .def_569)) (and (and (or .x.500 (and .def_447 (and (= (+ S_8 (* (- 1) .x.480)) (- 1)) .def_575))) (and .def_215 (and .def_59 (and .def_113 (and .loc.12 (and .loc.10 (and .loc.9 (and .loc.8 (and .loc.6 (and .loc.5 (and .def_105 (and .def_236 (and .def_144 (and .def_141 (and .def_102 (and .def_138 (and .def_294 (and .def_483 (and .def_99 (and .def_135 (and .def_192 (and .def_132 .def_459)))))))))))))))))))))) .def_612)) (and (or .x.500 (and (= (+ S_8 (+ (* (- 1) X_8) .x.485)) 1) (and (not .def_575) .def_622))) (and .def_612 (and .def_215 (and .def_59 (and .def_113 (and .loc.12 (and .loc.10 (and .loc.9 (and .loc.8 (and .loc.6 (and .loc.5 (and .def_105 (and .def_236 (and .def_144 (and .def_141 (and .def_102 (and .def_138 (and .def_294 (and .def_483 (and .def_99 (and .def_135 (and .def_192 (and .def_132 (and .def_569 (and .def_459 .def_566)))))))))))))))))))))))))) (and .def_383 (and .def_215 (and .def_59 (and .def_61 (and .def_155 (and .def_113 (and .def_56 (and .loc.10 (and .loc.5 (and .def_105 (and .def_236 (and .def_144 (and .def_141 (and .def_102 (and .def_138 (and .def_294 (and .def_483 (and .def_99 (and .def_135 (and .def_192 (and .def_132 (and .def_569 (and .def_566 (and .def_421 (and .def_563 (and .def_558 (and .def_296 (and .def_509 .def_560))))))))))))))))))))))))))))) (and .def_409 (and .def_383 (and .def_215 (and .def_59 (and .def_61 (and .def_155 (and .def_113 (and .def_56 (and .loc.10 (and .loc.5 (and .def_105 (and .def_236 (and .def_144 (and .def_141 (and .def_102 (and .def_138 (and .def_294 (and .def_483 (and .def_99 (and .def_135 (and .def_192 (and .def_132 (and .def_569 (and .def_566 (and .def_421 (and .def_563 (and .def_558 (and .def_296 (and .def_458 .def_560)))))))))))))))))))))))))))))) (and .def_712 .def_714)) (and (or M1_8 (and (= .x.465 (store D_8 A1_8 (store .def_247 (+ X_8 K1_8) N_8))) (and (<= (- 128) N_8) (and .def_433 (<= N_8 127))))) (and .def_448 (and .def_383 (and .def_289 (and .def_215 (and .def_59 (and .def_61 (and .def_113 (and .def_56 (and .loc.9 (and .loc.5 (and .def_105 (and .def_236 (and .def_144 (and .def_141 (and .def_102 (and .def_138 (and .def_294 (and .def_483 (and .def_99 (and .def_135 (and .def_192 (and .def_132 (and .def_569 (and .def_566 (and .def_563 (and .def_558 (and .def_296 (and .def_560 (and .def_418 (and .def_127 (and .def_96 (and .def_129 .def_413)))))))))))))))))))))))))))))))))) (and (or .x.500 (and .def_161 .def_760)) (and .def_383 (and .def_250 (and .def_215 (and .def_59 (and .def_61 (and .def_113 (and .loc.10 (and .loc.9 (and .def_57 (and .loc.6 (and .def_105 (and .def_144 (and .def_141 (and .def_102 (and .def_138 (and .def_294 (and .def_483 (and .def_99 (and .def_135 (and .def_192 (and .def_132 (and .def_569 (and .def_566 .def_770))))))))))))))))))))))))) (and .def_383 (and .def_61 (and .def_113 (and .def_56 (and .loc.11 (and .loc.10 (and .loc.9 (and .loc.7 (and .loc.5 (and .def_105 (and .def_236 (and .def_144 (and .def_141 (and .def_102 (and .def_138 (and .def_294 (and .def_483 (and .def_99 (and .def_135 (and .def_192 (and .def_132 (and .def_569 (and .def_566 (and .def_421 (and .def_563 (and .def_558 (and .def_296 (and .def_560 (and .def_418 (and .def_127 (and .def_712 (and .def_507 .def_714))))))))))))))))))))))))))))))))) (and (or M1_8 (= .x.493 (select .def_247 (+ O_8 K1_8)))) (and .def_383 (and .def_61 (and .def_155 (and .def_113 (and .def_56 (and .loc.11 (and .loc.10 (and .loc.7 (and .loc.5 .def_846))))))))))) (and .def_859 .def_861)) (and (or M1_8 (and (= (+ O_8 (* (- 1) .x.476)) (- 1)) (not .def_485))) (and .def_383 (and .def_289 (and .def_61 (and .def_113 (and .loc.11 (and .loc.9 (and .def_57 (and .loc.7 (and .loc.6 .def_846))))))))))) (and (or M1_8 (and .def_622 (and .def_177 (= .x.485 .x.480)))) (and .def_215 (and .def_59 (and .def_113 (and .loc.12 (and .loc.10 (and .loc.9 (and .def_57 (and .loc.8 (and .loc.6 (and .def_105 (and .def_236 (and .def_144 (and .def_141 (and .def_102 (and .def_138 (and .def_294 (and .def_483 (and .def_861 (and .def_99 (and .def_135 (and .def_192 (and .def_132 (and .def_569 (and .def_566 (and .def_563 (and .def_558 (and .def_296 (and .def_418 (and .def_127 (and .def_712 (and .def_763 .def_859))))))))))))))))))))))))))))))))) (and (and .def_919 .def_921) .def_924)) (and (or M1_8 (and (and (= .x.471 0) (= .x.467 0)) (= N1_0 (store B_8 0 0)))) (and (or .x.500 (and (and (and (and (and (and .def_117 (and (and (and .def_760 (and (and (not (<= .x.462 .x.488)) (not (<= .x.462 .x.478))) (not (= .x.478 0)))) (not (= .x.488 0))) (= .x.498 0))) (= .x.490 0)) (= (select .def_951 .x.478) 0)) (= (select N1_0 .x.488) 0)) (= .x.469 (store (store H_8 .x.488 5) .x.478 5))) (= .x.463 (store .def_951 .x.478 1)))) (and .def_383 (and .def_289 (and .def_215 (and .def_59 (and .def_61 (and .def_113 (and .def_56 (and .loc.9 (and .def_57 (and .def_105 (and .def_102 (and .def_96 .def_415))))))))))))))) (and (or .x.500 (and .def_161 (= .x.476 0))) (and .def_383 (and .def_289 (and .def_173 (and .def_61 (and .def_113 (and .def_56 (and .loc.11 (and .loc.9 (and .def_57 (and .loc.7 (and .def_105 (and .def_236 (and .def_144 (and .def_102 (and .def_138 (and .def_294 (and .def_483 (and .def_861 (and .def_99 (and .def_135 (and .def_192 (and .def_132 (and .def_569 (and .def_566 (and .def_421 (and .def_563 (and .def_558 (and .def_296 (and .def_560 (and .def_418 (and .def_127 (and .def_712 (and .def_714 (and .def_96 (and .def_413 (and .def_924 (and .def_919 (and .def_454 .def_921)))))))))))))))))))))))))))))))))))))))))))))))))))))))))))))))))))))))))))))))))))))))))))))))))))))))))))))))))))))))))))))))) (state |.x.462| |.x.463| |.x.464| |.x.465| |.x.466| |.x.467| |.x.468| |.x.469| |.x.470| |.x.471| |.x.472| |.x.473| |.x.474| |.x.475| |.x.476| |.x.477| |.x.478| |.x.479| |.x.480| |.x.481| |.x.482| |.x.483| |.x.484| |.x.485| |.x.486| |.x.487| |.x.488| |.x.489| |.x.490| |.x.491| |.x.492| |.x.493| |.x.494| |.x.495| |.x.496| |.x.497| |.x.498| |.x.499| |.x.500| |.loc.9| |.loc.10| |.loc.11| |.loc.12| |.xtv.1| |.xtv.2| |.xtv.3|))))
(assert (forall ((|A_8| Int) (|B_8| (Array Int Int)) (|C_8| (Array Int Int)) (|D_8| (Array Int Int)) (|E_8| (Array Int Int)) (|F_8| Int) (|G_8| Int) (|H_8| (Array Int Int)) (|I_8| (Array Int Int)) (|J_8| Int) (|K_8| Int) (|L_8| Int) (|M_8| Int) (|N_8| Int) (|O_8| Int) (|P_8| Int) (|Q_8| Int) (|R_8| Int) (|S_8| Int) (|N1_6| Int) (|U_8| Int) (|V_8| Int) (|W_8| Int) (|X_8| Int) (|Y_8| Int) (|Z_8| Int) (|A1_8| Int) (|B1_8| Int) (|C1_8| Int) (|D1_8| Int) (|E1_8| Int) (|F1_8| Int) (|G1_8| Int) (|H1_8| Int) (|I1_8| Int) (|J1_8| Int) (|K1_8| Int) (|L1_8| Int) (|M1_8| Bool) (|.loc.5| Bool) (|.loc.6| Bool) (|.loc.7| Bool) (|.loc.8| Bool) (|S1_1| Int) (|N1_0| (Array Int Int)) (|P1_7| Int) (|.x.472| Int) (|.x.470| (Array Int Int)) (|.x.468| Int) (|.x.466| (Array Int Int)) (|.x.462| Int) (|.x.464| (Array Int Int)) (|.x.481| Int) (|.x.474| Int) (|.x.491| Int) (|.x.496| Int) (|.x.500| Bool) (|.x.478| Int) (|.x.463| (Array Int Int)) (|.x.488| Int) (|.x.490| Int) (|.x.495| Int) (|.x.497| Int) (|.x.498| Int) (|.loc.9| Bool) (|.x.489| Int) (|.loc.11| Bool) (|.x.499| Int) (|.loc.10| Bool) (|.x.494| Int) (|.x.482| Int) (|.loc.12| Bool) (|.x.473| Int) (|.x.465| (Array Int Int)) (|.x.479| Int) (|.x.485| Int) (|.x.493| Int) (|.x.483| Int) (|.x.480| Int) (|.x.484| Int) (|.x.486| Int) (|.x.487| Int) (|.x.477| Int) (|.x.475| Int) (|.x.476| Int) (|.x.492| Int) (|.x.469| (Array Int Int)) (|.x.467| Int) (|.x.471| Int) (|.xtv.1| Int) (|.xtv.2| (Array Int Int)) (|.xtv.3| Int)) (=> (state |A_8| |B_8| |C_8| |D_8| |E_8| |F_8| |G_8| |H_8| |I_8| |J_8| |K_8| |L_8| |M_8| |N_8| |O_8| |P_8| |Q_8| |R_8| |S_8| |N1_6| |U_8| |V_8| |W_8| |X_8| |Y_8| |Z_8| |A1_8| |B1_8| |C1_8| |D1_8| |E1_8| |F1_8| |G1_8| |H1_8| |I1_8| |J1_8| |K1_8| |L1_8| |M1_8| |.loc.5| |.loc.6| |.loc.7| |.loc.8| |S1_1| |N1_0| |P1_7|) (not (and M1_8 (and .loc.8 (and .loc.7 (and .loc.5 .loc.6))))))))
(check-sat)
